NAME: ACTUAL_TOURS/amz1509
TYPE: TOUR
COMMENT: RouteID_a2a43aff-9962-41eb-a751-13985bf6ea55
DIMENSION: 198
TOUR_SECTION
162
160
91
12
96
74
128
178
153
145
28
161
83
171
189
51
109
165
172
20
108
6
76
192
88
97
156
53
95
117
10
8
196
21
113
126
99
180
185
49
13
15
45
23
119
81
94
132
170
38
1
136
101
163
14
158
37
32
159
186
112
90
98
142
40
148
118
79
17
146
42
167
56
197
64
86
66
114
87
60
41
193
147
155
75
50
181
103
127
25
89
39
67
182
26
34
54
65
31
166
55
138
80
133
194
183
131
123
100
151
106
7
72
195
84
78
85
61
188
179
191
122
11
82
149
73
135
107
157
2
169
44
71
57
105
143
68
22
150
47
154
140
121
35
70
144
173
176
124
3
36
19
174
9
137
59
175
29
16
5
52
152
115
24
164
134
92
63
139
120
18
187
168
116
43
177
104
62
111
93
27
184
58
30
48
4
77
46
110
33
102
130
141
198
129
190
69
125
-1
EOF
